sing20140316.12
TTAA  66121 48698
99008 25448 01003 00084 29658 34501 92768 21617 05515
85500 18017 13010 70142 09825 10515 50587 03957 11027
40760 14157 11020 30971 30956 13525 25098 39732 11015
20246 52140 16505 15426 67940 24008 10659 84339 10525
88999
77999=
TTCC  6612/ 48698=
TTDD  6612/ 48698
11979 84947 22956 85341 33947 85337 44912 84739 55887
84540
21212 11979 10028 22958 09524 33939 09530 44920 10038
55901 10537 66887 10539=
